MARKOV
226
 2 2 2 2 2 2 2 2 2 2 2 2 2 2 2 2 2 2 2 2 2 2 2 2 2 2 2 2 2 2 2 2 2 2 2 2 2 2 2 2 2 2 2 2 2 2 2 2 2 2 2 2 2 2 2 2 2 2 2 2 2 2 2 2 2 2 2 2 2 2 2 2 2 2 2 2 2 2 2 2 2 2 2 2 2 2 2 2 2 2 2 2 2 2 2 2 2 2 2 2 2 2 2 2 2 2 2 2 2 2 2 2 2 2 2 2 2 2 2 2 2 2 2 2 2 2 2 2 2 2 2 2 2 2 2 2 2 2 2 2 2 2 2 2 2 2 2 2 2 2 2 2 2 2 2 2 2 2 2 2 2 2 2 2 2 2 2 2 2 2 2 2 2 2 2 2 2 2 2 2 2 2 2 2 2 2 2 2 2 2 2 2 2 2 2 2 2 2 2 2 2 2 2 2 2 2 2 2 2 2 2 2 2 2 2 2 2 2 2 2 2 2 2 2 2 2
846
1	0 
1	1 
1	2 
1	3 
1	4 
1	5 
1	6 
1	7 
1	8 
1	9 
1	10 
1	11 
1	12 
1	13 
1	14 
1	15 
1	16 
1	17 
1	18 
1	19 
1	20 
1	21 
1	22 
1	23 
1	24 
1	25 
1	26 
1	27 
1	28 
1	29 
1	30 
1	31 
1	32 
1	33 
1	34 
1	35 
1	36 
1	37 
1	38 
1	39 
1	40 
1	41 
1	42 
1	43 
1	44 
1	45 
1	46 
1	47 
1	48 
1	49 
1	50 
1	51 
1	52 
1	53 
1	54 
1	55 
1	56 
1	57 
1	58 
1	59 
1	60 
1	61 
1	62 
1	63 
1	64 
1	65 
1	66 
1	67 
1	68 
1	69 
1	70 
1	71 
1	72 
1	73 
1	74 
1	75 
1	76 
1	77 
1	78 
1	79 
1	80 
1	81 
1	82 
1	83 
1	84 
1	85 
1	86 
1	87 
1	88 
1	89 
1	90 
1	91 
1	92 
1	93 
1	94 
1	95 
1	96 
1	97 
1	98 
1	99 
1	100 
1	101 
1	102 
1	103 
1	104 
1	105 
1	106 
1	107 
1	108 
1	109 
1	110 
1	111 
1	112 
1	113 
1	114 
1	115 
1	116 
1	117 
1	118 
1	119 
1	120 
1	121 
1	122 
1	123 
1	124 
1	125 
1	126 
1	127 
1	128 
1	129 
1	130 
1	131 
1	132 
1	133 
1	134 
1	135 
1	136 
1	137 
1	138 
1	139 
1	140 
1	141 
1	142 
1	143 
1	144 
1	145 
1	146 
1	147 
1	148 
1	149 
1	150 
1	151 
1	152 
1	153 
1	154 
1	155 
1	156 
1	157 
1	158 
1	159 
1	160 
1	161 
1	162 
1	163 
1	164 
1	165 
1	166 
1	167 
1	168 
1	169 
1	170 
1	171 
1	172 
1	173 
1	174 
1	175 
1	176 
1	177 
1	178 
1	179 
1	180 
1	181 
1	182 
1	183 
1	184 
1	185 
1	186 
1	187 
1	188 
1	189 
1	190 
1	191 
1	192 
1	193 
1	194 
1	195 
1	196 
1	197 
1	198 
1	199 
1	200 
1	201 
1	202 
1	203 
1	204 
1	205 
1	206 
1	207 
1	208 
1	209 
1	210 
1	211 
1	212 
1	213 
1	214 
1	215 
1	216 
1	217 
1	218 
1	219 
1	220 
1	221 
1	222 
1	223 
1	224 
1	225 
2	1 2 
2	1 16 
2	1 17 
2	1 19 
2	1 99 
2	1 100 
2	2 16 
2	2 99 
2	2 118 
2	2 156 
2	3 4 
2	3 5 
2	3 7 
2	4 6 
2	4 7 
2	4 9 
2	4 12 
2	5 6 
2	6 8 
2	6 9 
2	7 12 
2	7 14 
2	8 9 
2	8 10 
2	8 11 
2	9 10 
2	9 12 
2	9 13 
2	10 11 
2	10 13 
2	10 56 
2	10 88 
2	11 88 
2	11 89 
2	12 13 
2	12 14 
2	12 59 
2	12 61 
2	13 56 
2	13 57 
2	13 59 
2	14 58 
2	14 60 
2	14 61 
2	15 17 
2	15 18 
2	15 19 
2	15 20 
2	16 17 
2	16 20 
2	16 154 
2	16 156 
2	17 19 
2	17 20 
2	18 20 
2	18 186 
2	18 188 
2	19 98 
2	19 100 
2	20 154 
2	20 188 
2	21 22 
2	21 23 
2	21 26 
2	21 27 
2	21 173 
2	22 27 
2	22 94 
2	22 95 
2	22 173 
2	22 174 
2	22 175 
2	23 24 
2	23 25 
2	23 26 
2	23 173 
2	24 25 
2	24 26 
2	24 86 
2	24 142 
2	24 143 
2	25 86 
2	25 87 
2	25 173 
2	25 217 
2	26 27 
2	26 142 
2	26 144 
2	27 95 
2	27 144 
2	27 196 
2	27 200 
2	28 29 
2	28 30 
2	28 151 
2	29 151 
2	29 152 
2	30 36 
2	30 38 
2	30 151 
2	30 222 
2	31 32 
2	31 33 
2	31 34 
2	31 129 
2	31 133 
2	31 164 
2	32 33 
2	32 35 
2	32 164 
2	32 165 
2	32 169 
2	33 34 
2	33 35 
2	33 79 
2	33 80 
2	34 79 
2	34 110 
2	34 129 
2	34 134 
2	35 80 
2	35 169 
2	35 170 
2	35 198 
2	36 37 
2	36 38 
2	36 39 
2	37 39 
2	37 122 
2	37 176 
2	37 177 
2	38 39 
2	38 219 
2	38 222 
2	39 177 
2	39 178 
2	39 219 
2	40 41 
2	40 115 
2	40 140 
2	40 150 
2	40 218 
2	41 43 
2	41 114 
2	41 115 
2	41 138 
2	41 140 
2	41 141 
2	42 44 
2	42 45 
2	42 96 
2	42 116 
2	42 117 
2	42 175 
2	43 44 
2	43 45 
2	43 114 
2	43 138 
2	43 139 
2	44 45 
2	44 96 
2	44 97 
2	44 139 
2	45 114 
2	45 116 
2	46 48 
2	46 49 
2	46 51 
2	46 54 
2	46 145 
2	47 48 
2	47 50 
2	47 52 
2	47 53 
2	47 145 
2	47 146 
2	48 50 
2	48 54 
2	48 145 
2	49 51 
2	49 78 
2	49 112 
2	49 145 
2	50 52 
2	50 54 
2	50 55 
2	50 120 
2	51 54 
2	51 112 
2	51 211 
2	51 212 
2	51 214 
2	52 53 
2	52 119 
2	52 120 
2	53 119 
2	53 142 
2	53 144 
2	53 146 
2	53 200 
2	54 55 
2	54 155 
2	54 211 
2	55 118 
2	55 120 
2	55 155 
2	55 156 
2	56 57 
2	56 72 
2	56 88 
2	56 90 
2	56 204 
2	56 205 
2	57 59 
2	57 205 
2	58 60 
2	58 61 
2	58 123 
2	58 126 
2	59 61 
2	59 195 
2	59 205 
2	60 123 
2	60 124 
2	61 126 
2	61 195 
2	62 64 
2	62 68 
2	62 71 
2	62 113 
2	63 64 
2	63 66 
2	63 159 
2	63 162 
2	64 68 
2	64 159 
2	64 174 
2	64 216 
2	65 66 
2	65 161 
2	65 163 
2	66 161 
2	66 162 
2	67 70 
2	67 113 
2	67 117 
2	67 175 
2	68 69 
2	68 71 
2	68 173 
2	68 174 
2	69 70 
2	69 71 
2	69 174 
2	69 175 
2	70 71 
2	70 113 
2	70 175 
2	71 113 
2	72 77 
2	72 90 
2	72 202 
2	72 204 
2	73 75 
2	73 77 
2	73 91 
2	73 92 
2	73 135 
2	73 136 
2	73 207 
2	74 76 
2	74 101 
2	74 206 
2	74 215 
2	75 76 
2	75 92 
2	75 207 
2	76 206 
2	76 207 
2	77 90 
2	77 91 
2	77 135 
2	77 202 
2	78 81 
2	78 110 
2	78 112 
2	78 145 
2	78 148 
2	79 80 
2	79 81 
2	79 82 
2	79 110 
2	80 82 
2	80 197 
2	80 198 
2	81 82 
2	81 110 
2	81 148 
2	82 147 
2	82 148 
2	82 197 
2	83 84 
2	83 85 
2	83 86 
2	83 87 
2	84 87 
2	84 160 
2	85 86 
2	85 223 
2	85 224 
2	86 87 
2	86 143 
2	86 224 
2	86 225 
2	87 157 
2	87 160 
2	87 173 
2	87 217 
2	88 89 
2	88 90 
2	89 90 
2	89 91 
2	90 91 
2	91 92 
2	93 94 
2	93 95 
2	93 96 
2	93 97 
2	93 198 
2	93 199 
2	94 95 
2	94 96 
2	94 175 
2	95 196 
2	95 199 
2	95 201 
2	96 97 
2	96 175 
2	97 139 
2	97 171 
2	97 198 
2	98 100 
2	98 223 
2	99 100 
2	99 118 
2	99 121 
2	99 224 
2	99 225 
2	100 223 
2	100 224 
2	101 103 
2	101 208 
2	101 213 
2	101 215 
2	102 103 
2	102 104 
2	102 183 
2	102 213 
2	103 104 
2	103 208 
2	103 213 
2	104 182 
2	104 183 
2	105 107 
2	105 108 
2	105 138 
2	105 141 
2	105 167 
2	105 169 
2	105 172 
2	106 107 
2	106 108 
2	106 109 
2	106 180 
2	106 191 
2	107 108 
2	107 109 
2	107 137 
2	107 140 
2	107 141 
2	108 167 
2	108 168 
2	108 190 
2	108 191 
2	109 137 
2	109 180 
2	109 220 
2	110 111 
2	110 112 
2	110 134 
2	111 112 
2	111 134 
2	111 136 
2	111 209 
2	111 212 
2	112 212 
2	113 117 
2	114 115 
2	114 116 
2	115 150 
2	116 117 
2	117 175 
2	118 120 
2	118 121 
2	118 156 
2	119 120 
2	119 121 
2	119 142 
2	119 143 
2	120 121 
2	121 143 
2	121 225 
2	122 124 
2	122 125 
2	122 176 
2	123 124 
2	123 125 
2	123 126 
2	124 125 
2	125 127 
2	125 176 
2	126 127 
2	126 194 
2	126 195 
2	127 176 
2	127 179 
2	127 192 
2	127 193 
2	127 194 
2	128 130 
2	128 131 
2	128 132 
2	128 133 
2	128 202 
2	128 204 
2	129 131 
2	129 133 
2	129 134 
2	129 135 
2	130 132 
2	130 133 
2	130 164 
2	130 166 
2	130 203 
2	131 133 
2	131 135 
2	131 202 
2	132 203 
2	132 204 
2	132 205 
2	133 164 
2	134 135 
2	134 136 
2	135 136 
2	135 202 
2	136 207 
2	136 209 
2	137 140 
2	137 218 
2	137 220 
2	138 139 
2	138 141 
2	138 172 
2	139 171 
2	139 172 
2	140 141 
2	140 218 
2	142 143 
2	142 144 
2	143 225 
2	144 200 
2	145 146 
2	145 148 
2	146 147 
2	146 148 
2	146 196 
2	146 200 
2	147 148 
2	147 196 
2	147 197 
2	147 201 
2	149 151 
2	149 152 
2	149 153 
2	149 221 
2	149 222 
2	150 153 
2	150 218 
2	151 152 
2	151 222 
2	153 218 
2	153 221 
2	154 155 
2	154 156 
2	154 181 
2	154 187 
2	154 188 
2	155 156 
2	155 181 
2	155 211 
2	157 158 
2	157 160 
2	157 161 
2	157 162 
2	157 217 
2	158 159 
2	158 162 
2	158 173 
2	158 216 
2	159 162 
2	159 216 
2	160 161 
2	160 163 
2	161 162 
2	161 163 
2	164 165 
2	164 166 
2	165 166 
2	165 167 
2	165 168 
2	165 169 
2	166 168 
2	166 189 
2	166 190 
2	166 193 
2	166 203 
2	167 168 
2	167 169 
2	168 190 
2	169 170 
2	169 172 
2	170 171 
2	170 172 
2	170 198 
2	171 172 
2	171 198 
2	173 174 
2	173 216 
2	173 217 
2	174 175 
2	174 216 
2	176 177 
2	176 179 
2	177 178 
2	177 179 
2	177 180 
2	178 180 
2	178 219 
2	178 220 
2	179 180 
2	179 191 
2	179 192 
2	180 191 
2	180 220 
2	181 182 
2	181 183 
2	181 187 
2	181 211 
2	182 183 
2	182 184 
2	182 187 
2	183 211 
2	184 185 
2	184 187 
2	184 188 
2	185 186 
2	185 188 
2	186 188 
2	187 188 
2	189 190 
2	189 192 
2	189 193 
2	190 191 
2	190 192 
2	191 192 
2	192 193 
2	193 194 
2	193 203 
2	194 195 
2	194 203 
2	195 203 
2	195 205 
2	196 200 
2	196 201 
2	197 198 
2	197 199 
2	197 201 
2	198 199 
2	199 201 
2	202 204 
2	203 205 
2	204 205 
2	206 207 
2	206 208 
2	206 209 
2	206 210 
2	206 215 
2	207 209 
2	208 210 
2	208 213 
2	208 214 
2	208 215 
2	209 210 
2	209 212 
2	210 212 
2	210 214 
2	211 213 
2	211 214 
2	212 214 
2	213 214 
2	218 220 
2	218 221 
2	219 220 
2	219 221 
2	219 222 
2	220 221 
2	221 222 
2	223 224 
2	224 225 
0	

2
 0.252912 1
2
 0.422577 1
2
 0.284741 1
2
 1 0.19463
2
 1 0.230203
2
 1 0.139448
2
 1 0.141729
2
 1 0.286985
2
 1 0.460155
2
 1 0.393687
2
 1 0.645681
2
 1 0.459949
2
 1 0.519716
2
 1 0.0923299
2
 1 0.40916
2
 1 0.794606
2
 0.288274 1
2
 0.459793 1
2
 1 0.637359
2
 1 0.86193
2
 0.638328 1
2
 1 0.165796
2
 1 0.225431
2
 1 0.116164
2
 1 0.473627
2
 1 0.217331
2
 1 0.0956716
2
 1 0.76868
2
 1 0.143587
2
 1 0.506586
2
 1 0.512454
2
 0.0683244 1
2
 0.130372 1
2
 0.124807 1
2
 0.147475 1
2
 0.169413 1
2
 0.103443 1
2
 0.101284 1
2
 0.314735 1
2
 0.096458 1
2
 1 0.149109
2
 1 0.168415
2
 1 0.0633802
2
 1 0.103642
2
 1 0.408916
2
 1 0.0885341
2
 0.103128 1
2
 0.626807 1
2
 0.206419 1
2
 0.0859976 1
2
 0.101504 1
2
 0.467968 1
2
 0.0905079 1
2
 0.0735208 1
2
 0.344482 1
2
 0.148237 1
2
 1 0.552805
2
 1 0.888044
2
 1 0.747296
2
 1 0.501756
2
 1 0.679933
2
 1 0.923432
2
 1 0.337765
2
 1 0.43303
2
 1 0.582337
2
 1 0.339303
2
 1 0.445013
2
 1 0.0959995
2
 1 0.0793032
2
 1 0.13463
2
 1 0.14797
2
 1 0.0901916
2
 1 0.979257
2
 1 0.360875
2
 1 0.525385
2
 1 0.33562
2
 1 0.228777
2
 1 0.744462
2
 0.164549 1
2
 0.0652316 1
2
 0.0357499 1
2
 0.113604 1
2
 0.0271565 1
2
 1 0.0444144
2
 1 0.275674
2
 1 0.094027
2
 0.505332 1
2
 1 0.470622
2
 1 0.682635
2
 1 0.605689
2
 0.909751 1
2
 0.750639 1
2
 0.340903 1
2
 1 0.439836
2
 1 0.213712
2
 0.972718 1
2
 1 0.493156
2
 1 0.411122
2
 1 0.267253
2
 0.0897043 1
2
 0.473184 1
2
 1 0.075494
2
 1 0.0998783
2
 1 0.233979
2
 1 0.191715
2
 0.212211 1
2
 0.259142 1
2
 0.384709 1
2
 0.128895 1
2
 0.156754 1
2
 0.170971 1
2
 0.25297 1
2
 0.0583461 1
2
 1 0.25484
2
 1 0.12344
2
 1 0.330714
2
 1 0.374486
2
 1 0.42073
2
 0.127502 1
2
 0.274013 1
2
 0.139254 1
2
 0.192158 1
2
 1 0.3241
2
 1 0.369461
2
 1 0.446331
2
 1 0.195421
2
 1 0.598445
2
 1 0.483245
2
 1 0.454845
2
 1 0.866821
2
 1 0.659363
2
 1 0.390722
2
 1 0.7482
2
 1 0.428949
2
 0.367841 1
2
 1 0.147406
2
 1 0.226938
2
 1 0.11313
2
 1 0.242657
2
 1 0.57347
2
 1 0.177582
2
 1 0.209709
2
 0.156242 1
2
 0.426147 1
2
 0.224766 1
2
 0.163751 1
2
 0.113784 1
2
 0.0506489 1
2
 0.133627 1
2
 1 0.153121
2
 1 0.109645
2
 1 0.418472
2
 1 0.486858
2
 1 0.132836
2
 0.431271 1
2
 0.322982 1
2
 0.16417 1
2
 1 0.0302136
2
 1 0.0238941
2
 1 0.0321604
2
 1 0.0135298
2
 1 0.0509218
2
 1 0.0295095
2
 1 0.0340508
2
 0.100558 1
2
 0.14175 1
2
 0.155189 1
2
 0.203739 1
2
 0.109171 1
2
 0.202313 1
2
 0.194282 1
2
 0.0614033 1
2
 0.215697 1
2
 1 0.178587
2
 1 0.274077
2
 1 0.544853
2
 0.0796256 1
2
 0.0522189 1
2
 0.232295 1
2
 0.121603 1
2
 0.273936 1
2
 1 0.195224
2
 1 0.0746324
2
 1 0.138059
2
 1 0.0528278
2
 1 0.10461
2
 1 0.216779
2
 1 0.0685936
2
 1 0.406149
2
 0.136759 1
2
 0.0981146 1
2
 0.175623 1
2
 0.112076 1
2
 1 0.398487
2
 1 0.417148
2
 1 0.77877
2
 0.292501 1
2
 0.110553 1
2
 0.105972 1
2
 0.169746 1
2
 0.393741 1
2
 0.0872885 1
2
 1 0.493566
2
 1 0.269782
2
 1 0.730261
2
 0.913435 1
2
 1 0.126354
2
 1 0.216976
2
 1 0.234961
2
 1 0.255388
2
 1 0.298988
2
 1 0.269918
2
 0.997671 1
2
 1 0.174306
2
 1 0.140875
2
 1 0.173008
2
 1 0.066823
2
 1 0.353772
2
 1 0.226826
2
 0.968277 1
2
 1 0.938582
2
 1 0.248002
2
 1 0.27479
2
 1 0.413028
2
 1 0.688794
2
 0.946857 1
4
 0.958535 0.252152 0.252152 1
4
 0.953329 0.248791 0.248791 1
4
 0.952473 0.246947 0.246947 1
4
 0.95499 0.247403 0.247403 1
4
 0.962365 0.253753 0.253753 1
4
 0.961825 0.252155 0.252155 1
4
 0.954828 0.250793 0.250793 1
4
 0.963879 0.255795 0.255795 1
4
 0.96204 0.256444 0.256444 1
4
 0.956814 0.253448 0.253448 1
4
 0.96111 0.303101 0.303101 1
4
 0.956533 0.301236 0.301236 1
4
 0.965599 0.30827 0.30827 1
4
 0.955944 0.297212 0.297212 1
4
 0.965817 0.306791 0.306791 1
4
 0.959439 0.298266 0.298266 1
4
 0.965438 0.304269 0.304269 1
4
 0.951391 0.295383 0.295383 1
4
 0.949311 0.290076 0.290076 1
4
 0.954067 0.293881 0.293881 1
4
 0.969947 0.309458 0.309458 1
4
 0.974806 0.31509 0.31509 1
4
 0.952783 0.291105 0.291105 1
4
 0.948566 0.286279 0.286279 1
4
 0.946119 0.283511 0.283511 1
4
 0.953318 0.290034 0.290034 1
4
 0.963543 0.300859 0.300859 1
4
 0.958632 0.294716 0.294716 1
4
 0.946651 0.282468 0.282468 1
4
 0.95439 0.289829 0.289829 1
4
 0.954337 0.287769 0.287769 1
4
 0.95054 0.284526 0.284526 1
4
 0.948088 0.281776 0.281776 1
4
 0.943733 0.277642 0.277642 1
4
 0.964626 0.300647 0.300647 1
4
 0.974424 0.312499 0.312499 1
4
 0.970657 0.305677 0.305677 1
4
 0.973877 0.309498 0.309498 1
4
 0.959656 0.292415 0.292415 1
4
 0.9623 0.295681 0.295681 1
4
 0.96571 0.299435 0.299435 1
4
 0.982279 0.319279 0.319279 1
4
 0.986092 0.323696 0.323696 1
4
 0.978756 0.31513 0.31513 1
4
 0.945705 0.241084 0.241084 1
4
 0.938775 0.235708 0.235708 1
4
 0.948205 0.241529 0.241529 1
4
 0.941308 0.238627 0.238627 1
4
 0.94879 0.245617 0.245617 1
4
 0.944378 0.243114 0.243114 1
4
 0.94597 0.245708 0.245708 1
4
 0.951617 0.250071 0.250071 1
4
 0.950443 0.244247 0.244247 1
4
 0.94353 0.241312 0.241312 1
4
 0.936615 0.235931 0.235931 1
4
 0.928812 0.229894 0.229894 1
4
 0.932208 0.233418 0.233418 1
4
 0.956977 0.24671 0.24671 1
4
 0.959775 0.249398 0.249398 1
4
 0.940726 0.241402 0.241402 1
4
 0.934724 0.236309 0.236309 1
4
 1 0.294423 0.294423 0.988013
4
 1 0.288514 0.288514 0.991903
4
 1 0.288625 0.288625 0.994581
4
 1 0.292039 0.292039 0.992294
4
 1 0.290541 0.290541 0.988456
4
 1 0.29501 0.29501 0.990235
4
 1 0.300435 0.300435 0.983696
4
 1 0.298255 0.298255 0.988069
4
 1 0.293497 0.293497 0.986405
4
 1 0.296993 0.296993 0.981874
4
 1 0.303126 0.303126 0.979122
4
 1 0.282744 0.282744 0.999226
4
 1 0.282856 0.282856 0.9962
4
 1 0.285709 0.285709 0.996425
4
 1 0.287606 0.287606 0.990289
4
 0.998306 0.279555 0.279555 1
4
 0.998081 0.282311 0.282311 1
4
 0.993441 0.275272 0.275272 1
4
 0.992604 0.278419 0.278419 1
4
 0.991156 0.275533 0.275533 1
4
 0.996458 0.276218 0.276218 1
4
 1 0.279057 0.279057 0.997823
4
 1 0.284844 0.284844 0.992738
4
 1 0.281727 0.281727 0.994467
4
 1 0.289201 0.289201 0.996817
4
 0.995394 0.28213 0.28213 1
4
 0.998753 0.28579 0.28579 1
4
 1 0.295839 0.295839 0.992351
4
 1 0.289531 0.289531 0.998947
4
 1 0.292165 0.292165 0.998162
4
 0.999425 0.289794 0.289794 1
4
 1 0.361086 0.361086 0.944993
4
 1 0.356482 0.356482 0.953843
4
 1 0.356578 0.356578 0.950101
4
 1 0.359014 0.359014 0.945524
4
 1 0.361171 0.361171 0.941075
4
 1 0.351166 0.351166 0.964832
4
 1 0.352134 0.352134 0.960939
4
 1 0.354437 0.354437 0.954378
4
 1 0.351941 0.351941 0.957277
4
 0.986929 0.29939 0.29939 1
4
 0.983278 0.295225 0.295225 1
4
 0.979311 0.292737 0.292737 1
4
 0.975798 0.291351 0.291351 1
4
 0.979695 0.29615 0.29615 1
4
 0.985378 0.300487 0.300487 1
4
 0.98826 0.298241 0.298241 1
4
 0.993211 0.301649 0.301649 1
4
 0.99037 0.303556 0.303556 1
4
 0.994048 0.305793 0.305793 1
4
 0.997571 0.307104 0.307104 1
4
 0.980632 0.291613 0.291613 1
4
 0.989538 0.297453 0.297453 1
4
 0.982286 0.290819 0.290819 1
4
 0.988983 0.29558 0.29558 1
4
 0.978323 0.288368 0.288368 1
4
 0.973063 0.284657 0.284657 1
4
 0.973172 0.287786 0.287786 1
4
 0.970934 0.284717 0.284717 1
4
 0.993937 0.298958 0.298958 1
4
 0.99886 0.306293 0.306293 1
4
 0.999253 0.30474 0.30474 1
4
 1 0.304237 0.304237 0.998558
4
 1 0.344951 0.344951 0.976551
4
 1 0.348978 0.348978 0.967653
4
 1 0.345858 0.345858 0.971737
4
 1 0.34281 0.34281 0.976715
4
 1 0.340414 0.340414 0.985751
4
 1 0.338534 0.338534 0.984921
4
 1 0.339606 0.339606 0.980892
4
 1 0.346811 0.346811 0.967816
4
 1 0.347057 0.347057 0.964181
4
 1 0.349748 0.349748 0.960076
4
 1 0.340498 0.340498 0.976056
4
 1 0.341448 0.341448 0.972336
4
 1 0.343954 0.343954 0.96825
4
 1 0.333748 0.333748 0.956359
4
 1 0.338648 0.338648 0.950738
4
 1 0.333817 0.333817 0.960504
4
 1 0.339462 0.339462 0.952823
4
 1 0.338241 0.338241 0.956575
4
 1 0.328647 0.328647 0.959263
4
 1 0.331965 0.331965 0.953999
4
 1 0.33605 0.33605 0.95218
4
 1 0.326726 0.326726 0.964665
4
 1 0.331256 0.331256 0.961961
4
 1 0.328983 0.328983 0.963312
4
 1 0.318296 0.318296 0.965476
4
 1 0.320371 0.320371 0.961526
4
 1 0.313778 0.313778 0.970258
4
 1 0.321175 0.321175 0.958777
4
 1 0.31753 0.31753 0.9605
4
 1 0.313037 0.313037 0.968352
4
 1 0.322751 0.322751 0.963635
4
 1 0.324854 0.324854 0.959693
4
 1 0.329418 0.329418 0.955446
4
 1 0.324219 0.324219 0.966128
4
 1 0.322005 0.322005 0.967702
4
 1 0.321493 0.321493 0.962607
4
 1 0.314877 0.314877 0.971348
4
 1 0.316358 0.316358 0.972058
4
 1 0.318673 0.318673 0.97064
4
 1 0.328134 0.328134 0.954427
4
 1 0.3244 0.3244 0.955928
4
 0.96458 0.26696 0.26696 1
4
 0.962307 0.267534 0.267534 1
4
 0.958801 0.264375 0.264375 1
4
 0.958694 0.262374 0.262374 1
4
 0.967834 0.270874 0.270874 1
4
 0.970883 0.270249 0.270249 1
4
 0.971702 0.269432 0.269432 1
4
 0.976625 0.272638 0.272638 1
4
 0.980251 0.276024 0.276024 1
4
 0.974159 0.274212 0.274212 1
4
 0.979315 0.277066 0.277066 1
4
 0.967564 0.266665 0.266665 1
4
 0.96085 0.262879 0.262879 1
4
 0.970011 0.271396 0.271396 1
4
 0.958693 0.265454 0.265454 1
4
 0.966693 0.272752 0.272752 1
4
 0.96236 0.27035 0.27035 1
4
 0.967725 0.271979 0.271979 1
4
 0.973286 0.269022 0.269022 1
4
 0.96166 0.262084 0.262084 1
4
 0.964418 0.262618 0.262618 1
4
 0.969958 0.265453 0.265453 1
4
 0.955094 0.260334 0.260334 1
4
 0.958854 0.267157 0.267157 1
4
 0.950333 0.257392 0.257392 1
4
 0.954182 0.263504 0.263504 1
4
 0.952148 0.260622 0.260622 1
4
 0.981849 0.275604 0.275604 1
4
 0.980197 0.27224 0.27224 1
4
 0.974872 0.268612 0.268612 1
4
 0.983836 0.275622 0.275622 1
4
 0.98771 0.278633 0.278633 1
4
 0.991043 0.282248 0.282248 1
4
 0.984553 0.28008 0.28008 1
4
 0.98943 0.282207 0.282207 1
4
 0.957726 0.258889 0.258889 1
4
 0.951776 0.25463 0.25463 1
4
 0.950227 0.255443 0.255443 1
4
 0.962255 0.259072 0.259072 1
4
 0.96599 0.262218 0.262218 1
4
 0.954506 0.255149 0.255149 1
4
 0.957028 0.256046 0.256046 1
4
 0.962246 0.293579 0.293579 1
4
 0.958419 0.286903 0.286903 1
4
 0.955785 0.287064 0.287064 1
4
 0.95541 0.285179 0.285179 1
4
 0.962896 0.29131 0.29131 1
4
 0.966579 0.295695 0.295695 1
4
 0.968316 0.300628 0.300628 1
4
 0.969242 0.298998 0.298998 1
4
 0.989087 0.324808 0.324808 1
4
 0.981729 0.316213 0.316213 1
4
 0.989977 0.323436 0.323436 1
4
 0.987534 0.320073 0.320073 1
4
 0.974972 0.30825 0.30825 1
4
 0.976452 0.307495 0.307495 1
4
 0.972676 0.302794 0.302794 1
4
 0.993819 0.32791 0.32791 1
4
 0.997229 0.332318 0.332318 1
4
 0.983992 0.315914 0.315914 1
4
 0.979692 0.311339 0.311339 1
4
 1 0.301444 0.301444 0.964063
4
 1 0.301382 0.301382 0.968295
4
 1 0.304524 0.304524 0.965147
4
 1 0.307407 0.307407 0.961254
4
 1 0.296313 0.296313 0.966339
4
 1 0.291398 0.291398 0.968783
4
 1 0.293923 0.293923 0.970744
4
 1 0.291429 0.291429 0.972325
4
 1 0.298684 0.298684 0.969492
4
 1 0.296335 0.296335 0.969655
4
 1 0.297655 0.297655 0.971508
4
 1 0.29631 0.29631 0.97189
4
 1 0.286447 0.286447 0.971287
4
 1 0.284145 0.284145 0.975934
4
 1 0.282062 0.282062 0.976921
4
 1 0.286595 0.286595 0.974784
4
 1 0.288948 0.288948 0.973691
4
 1 0.309774 0.309774 0.967971
4
 1 0.311361 0.311361 0.963092
4
 1 0.314945 0.314945 0.961579
4
 1 0.310488 0.310488 0.96944
4
 1 0.299914 0.299914 0.974733
4
 1 0.301736 0.301736 0.970582
4
 1 0.294091 0.294091 0.980276
4
 1 0.297594 0.297594 0.975773
4
 1 0.304351 0.304351 0.972547
4
 1 0.303041 0.303041 0.971564
4
 1 0.298881 0.298881 0.97676
4
 1 0.305052 0.305052 0.974023
4
 1 0.306199 0.306199 0.968405
4
 1 0.309098 0.309098 0.964498
4
 1 0.308232 0.308232 0.970856
4
 1 0.307768 0.307768 0.963524
4
 0.954714 0.280172 0.280172 1
4
 0.954231 0.281807 0.281807 1
4
 0.959227 0.284134 0.284134 1
4
 0.961708 0.287866 0.287866 1
4
 0.943788 0.267321 0.267321 1
4
 0.949795 0.273866 0.273866 1
4
 0.945113 0.271349 0.271349 1
4
 0.942887 0.26833 0.26833 1
4
 0.953429 0.275222 0.275222 1
4
 0.951237 0.271832 0.271832 1
4
 0.947239 0.268717 0.268717 1
4
 0.934508 0.255948 0.255948 1
4
 0.931628 0.250738 0.250738 1
4
 0.936242 0.255608 0.255608 1
4
 0.932727 0.252355 0.252355 1
4
 0.938346 0.261275 0.261275 1
4
 0.939294 0.264792 0.264792 1
4
 0.94363 0.265174 0.265174 1
4
 0.938241 0.258434 0.258434 1
4
 0.941777 0.26264 0.26264 1
4
 0.951716 0.278488 0.278488 1
4
 0.947504 0.274328 0.274328 1
4
 0.955841 0.278243 0.278243 1
4
 0.956699 0.280788 0.280788 1
4
 0.974431 0.279937 0.279937 1
4
 0.970336 0.278581 0.278581 1
4
 0.966856 0.274503 0.274503 1
4
 0.972246 0.276157 0.276157 1
4
 0.977281 0.280638 0.280638 1
4
 0.986653 0.292291 0.292291 1
4
 0.978818 0.285264 0.285264 1
4
 0.984274 0.289386 0.289386 1
4
 0.974704 0.283882 0.283882 1
4
 0.990985 0.294124 0.294124 1
4
 0.996789 0.29857 0.29857 1
4
 1 0.302491 0.302491 0.999118
4
 0.983115 0.287053 0.287053 1
4
 0.973556 0.281593 0.281593 1
4
 0.980524 0.283673 0.283673 1
4
 0.990429 0.290814 0.290814 1
4
 0.98599 0.287772 0.287772 1
4
 0.994385 0.295603 0.295603 1
4
 0.997075 0.271681 0.271681 1
4
 0.989046 0.266676 0.266676 1
4
 0.992439 0.270712 0.270712 1
4
 0.998139 0.274092 0.274092 1
4
 1 0.275828 0.275828 0.998046
4
 1 0.275582 0.275582 0.994745
4
 0.988212 0.267932 0.267932 1
4
 0.979374 0.260178 0.260178 1
4
 0.98119 0.262444 0.262444 1
4
 0.997298 0.275382 0.275382 1
4
 0.989322 0.272244 0.272244 1
4
 0.984557 0.266416 0.266416 1
4
 0.985884 0.268508 0.268508 1
4
 1 0.28068 0.28068 0.99179
4
 1 0.277731 0.277731 0.993685
4
 1 0.283743 0.283743 0.991902
4
 1 0.280638 0.280638 0.993629
4
 0.947609 0.279665 0.279665 1
4
 0.951608 0.281965 0.281965 1
4
 0.947237 0.277829 0.277829 1
4
 0.943045 0.273678 0.273678 1
4
 0.947025 0.275929 0.275929 1
4
 0.940613 0.268782 0.268782 1
4
 1 0.304449 0.304449 0.983255
4
 1 0.30224 0.30224 0.987627
4
 1 0.307904 0.307904 0.980609
4
 1 0.309352 0.309352 0.981326
4
 1 0.305693 0.305693 0.988349
4
 1 0.303567 0.303567 0.98907
4
 1 0.30128 0.30128 0.985798
4
 1 0.306925 0.306925 0.978793
4
 1 0.3062 0.3062 0.976871
4
 1 0.295379 0.295379 0.995979
4
 1 0.300406 0.300406 0.991628
4
 1 0.29755 0.29755 0.99475
4
 1 0.311867 0.311867 0.976873
4
 1 0.309674 0.309674 0.974243
4
 1 0.315627 0.315627 0.976161
4
 1 0.312492 0.312492 0.981988
4
 1 0.309628 0.309628 0.984583
4
 0.963826 0.251449 0.251449 1
4
 0.967459 0.252576 0.252576 1
4
 0.967186 0.255799 0.255799 1
4
 0.965883 0.258073 0.258073 1
4
 0.972031 0.261324 0.261324 1
4
 0.972633 0.259184 0.259184 1
4
 0.973944 0.261219 0.261219 1
4
 0.970288 0.255328 0.255328 1
4
 0.972087 0.257552 0.257552 1
4
 0.930635 0.246881 0.246881 1
4
 0.93451 0.250879 0.250879 1
4
 0.936033 0.250497 0.250497 1
4
 0.931837 0.249952 0.249952 1
4
 0.932519 0.245665 0.245665 1
4
 0.93095 0.243072 0.243072 1
4
 0.935666 0.245555 0.245555 1
4
 0.937928 0.249263 0.249263 1
4
 0.928965 0.24283 0.24283 1
4
 0.934405 0.249395 0.249395 1
4
 0.935928 0.249015 0.249015 1
4
 0.927194 0.238624 0.238624 1
4
 0.932101 0.242721 0.242721 1
4
 1 0.323492 0.323492 0.979127
4
 1 0.320924 0.320924 0.984475
4
 1 0.321238 0.321238 0.97693
4
 1 0.323457 0.323457 0.97556
4
 1 0.317774 0.317774 0.988296
4
 1 0.315455 0.315455 0.989517
4
 1 0.317948 0.317948 0.983479
4
 1 0.327638 0.327638 0.977864
4
 1 0.325037 0.325037 0.983205
4
 1 0.330836 0.330836 0.97589
4
 1 0.330737 0.330737 0.979514
4
 1 0.327624 0.327624 0.983261
4
 1 0.324269 0.324269 0.981274
4
 1 0.330054 0.330054 0.973973
4
 1 0.331484 0.331484 0.96939
4
 1 0.329086 0.329086 0.971024
4
 1 0.326828 0.326828 0.972388
4
 1 0.318537 0.318537 0.990463
4
 1 0.319282 0.319282 0.992189
4
 1 0.321719 0.321719 0.990019
4
 1 0.324255 0.324255 0.986689
4
 1 0.33472 0.33472 0.967433
4
 1 0.333175 0.333175 0.975616
4
 1 0.336188 0.336188 0.968847
4
 0.964577 0.276472 0.276472 1
4
 0.965987 0.276127 0.276127 1
4
 0.967343 0.280288 0.280288 1
4
 0.961117 0.272425 0.272425 1
4
 0.962467 0.27653 0.27653 1
4
 0.9574 0.27277 0.27277 1
4
 0.954716 0.269182 0.269182 1
4
 0.956434 0.268699 0.268699 1
4
 0.957831 0.268364 0.268364 1
4
 1 0.314257 0.314257 0.958129
4
 1 0.336839 0.336839 0.948391
4
 1 0.328958 0.328958 0.951697
4
 1 0.341803 0.341803 0.948659
4
 1 0.321524 0.321524 0.954908
4
 1 0.313377 0.313377 0.964445
4
 0.967782 0.261869 0.261869 1
4
 0.970177 0.261987 0.261987 1
4
 0.958804 0.255705 0.255705 1
4
 0.976845 0.268629 0.268629 1
4
 0.979262 0.26875 0.26875 1
4
 0.986048 0.275233 0.275233 1
4
 0.98461 0.27238 0.27238 1
4
 0.973943 0.265168 0.265168 1
4
 0.981685 0.26887 0.26887 1
4
 0.978274 0.265181 0.265181 1
4
 1 0.336878 0.336878 0.994201
4
 1 0.33529 0.33529 0.993252
4
 1 0.337051 0.337051 0.989133
4
 0.998126 0.330914 0.330914 1
4
 0.999079 0.32967 0.32967 1
4
 0.992259 0.32313 0.32313 1
4
 1 0.333266 0.333266 0.997499
4
 1 0.329017 0.329017 0.998115
4
 1 0.333438 0.333438 0.992415
4
 0.995049 0.323099 0.323099 1
4
 0.990033 0.318236 0.318236 1
4
 0.985485 0.31514 0.31514 1
4
 1 0.330745 0.330745 0.993976
4
 1 0.328691 0.328691 0.994143
4
 1 0.325955 0.325955 0.996882
4
 0.996056 0.320961 0.320961 1
4
 0.995273 0.321549 0.321549 1
4
 0.979804 0.300906 0.300906 1
4
 0.970878 0.292278 0.292278 1
4
 0.977276 0.299991 0.299991 1
4
 0.975742 0.296112 0.296112 1
4
 0.967612 0.290466 0.290466 1
4
 0.970114 0.294281 0.294281 1
4
 0.9687 0.287372 0.287372 1
4
 0.973553 0.291141 0.291141 1
4
 0.967451 0.283369 0.283369 1
4
 0.964576 0.283001 0.283001 1
4
 0.983055 0.304668 0.304668 1
4
 0.981512 0.300728 0.300728 1
4
 0.987205 0.305132 0.305132 1
4
 0.989924 0.309056 0.309056 1
4
 0.984878 0.307322 0.307322 1
4
 0.97257 0.292104 0.292104 1
4
 0.963601 0.283938 0.283938 1
4
 0.964466 0.286535 0.286535 1
4
 0.982337 0.306387 0.306387 1
4
 0.973333 0.29796 0.29796 1
4
 0.977056 0.302445 0.302445 1
4
 0.983112 0.30027 0.30027 1
4
 0.962358 0.279983 0.279983 1
4
 0.960145 0.276535 0.276535 1
4
 0.957292 0.276176 0.276176 1
4
 0.96036 0.282177 0.282177 1
4
 0.951077 0.269649 0.269649 1
4
 0.952414 0.269187 0.269187 1
4
 1 0.333738 0.333738 0.964504
4
 1 0.338161 0.338161 0.960559
4
 1 0.337645 0.337645 0.964288
4
 1 0.320123 0.320123 0.973151
4
 1 0.324551 0.324551 0.970206
4
 1 0.319024 0.319024 0.978082
4
 1 0.31478 0.31478 0.980556
4
 1 0.316845 0.316845 0.979676
4
 1 0.32905 0.32905 0.967486
4
 1 0.335715 0.335715 0.962178
4
 0.988488 0.275356 0.275356 1
4
 0.993272 0.28185 0.28185 1
4
 0.983616 0.268763 0.268763 1
4
 0.995002 0.285465 0.285465 1
4
 0.978435 0.278241 0.278241 1
4
 0.978325 0.279843 0.279843 1
4
 0.98793 0.285744 0.285744 1
4
 0.983502 0.282755 0.282755 1
4
 0.990875 0.286116 0.286116 1
4
 0.988486 0.283272 0.283272 1
4
 0.987819 0.287389 0.287389 1
4
 0.995224 0.290804 0.290804 1
4
 0.99623 0.29521 0.29521 1
4
 0.996454 0.293304 0.293304 1
4
 1 0.353648 0.353648 0.947915
4
 1 0.355773 0.355773 0.943455
4
 1 0.350323 0.350323 0.946106
4
 1 0.34912 0.34912 0.9509
4
 1 0.351158 0.351158 0.950794
4
 1 0.345251 0.345251 0.948872
4
 1 0.341392 0.341392 0.954483
4
 1 0.356662 0.356662 0.946161
4
 1 0.352035 0.352035 0.953521
4
 1 0.344009 0.344009 0.952609
4
 1 0.346702 0.346702 0.951808
4
 0.945438 0.247439 0.247439 1
4
 0.947937 0.248309 0.248309 1
4
 0.941095 0.244623 0.244623 1
4
 0.938088 0.241425 0.241425 1
4
 0.936299 0.23883 0.23883 1
4
 0.951082 0.251833 0.251833 1
4
 0.944217 0.248095 0.248095 1
4
 0.947031 0.251752 0.251752 1
4
 1 0.286417 0.286417 0.984743
4
 1 0.280429 0.280429 0.988509
4
 1 0.283849 0.283849 0.98303
4
 1 0.286179 0.286179 0.981927
4
 1 0.283365 0.283365 0.988454
4
 1 0.291693 0.291693 0.97846
4
 1 0.289218 0.289218 0.980054
4
 1 0.289542 0.289542 0.984854
4
 1 0.291668 0.291668 0.980716
4
 1 0.291451 0.291451 0.975662
4
 1 0.29392 0.29392 0.97632
4
 1 0.280867 0.280867 0.984908
4
 1 0.278808 0.278808 0.985903
4
 1 0.286626 0.286626 0.978349
4
 1 0.282208 0.282208 0.980438
4
 0.992485 0.306913 0.306913 1
4
 0.991538 0.308585 0.308585 1
4
 0.995219 0.310859 0.310859 1
4
 1 0.312876 0.312876 0.999065
4
 0.999195 0.313355 0.313355 1
4
 0.999701 0.3105 0.3105 1
4
 0.998241 0.315063 0.315063 1
4
 0.996337 0.315862 0.315862 1
4
 1 0.318027 0.318027 0.999571
4
 0.993041 0.31405 0.31405 1
4
 0.989201 0.3108 0.3108 1
4
 1 0.316148 0.316148 0.99604
4
 1 0.313109 0.313109 0.995536
4
 1 0.319306 0.319306 0.995594
4
 1 0.309126 0.309126 0.996374
4
 1 0.31328 0.31328 0.990684
4
 1 0.309539 0.309539 0.991184
4
 1 0.31157 0.31157 0.990295
4
 1 0.306701 0.306701 0.993803
4
 1 0.313698 0.313698 0.985524
4
 1 0.308797 0.308797 0.989016
4
 1 0.293077 0.293077 0.982314
4
 1 0.291753 0.291753 0.9827
4
 1 0.286457 0.286457 0.988566
4
 1 0.302692 0.302692 0.975062
4
 1 0.295228 0.295228 0.978186
4
 1 0.336251 0.336251 0.984257
4
 1 0.333108 0.333108 0.988466
4
 1 0.338256 0.338256 0.976494
4
 1 0.334163 0.334163 0.984422
4
 1 0.335189 0.335189 0.979735
4
 1 0.336124 0.336124 0.976001
4
 1 0.34169 0.34169 0.968685
4
 1 0.339163 0.339163 0.969228
4
 1 0.332056 0.332056 0.983924
4
 1 0.328931 0.328931 0.987688
4
 1 0.328284 0.328284 0.991355
4
 1 0.329941 0.329941 0.982985
4
 1 0.336087 0.336087 0.972444
4
 0.933411 0.241096 0.241096 1
4
 0.93835 0.245236 0.245236 1
4
 0.936877 0.242064 0.242064 1
4
 0.942681 0.248887 0.248887 1
4
 0.931892 0.241062 0.241062 1
4
 0.925686 0.234645 0.234645 1
4
 0.930428 0.237944 0.237944 1
4
 0.941147 0.248852 0.248852 1
4
 0.922885 0.229975 0.229975 1
4
 0.929124 0.235587 0.235587 1
4
 0.927352 0.233055 0.233055 1
4
 0.922471 0.22722 0.22722 1
4
 0.925843 0.230703 0.230703 1
4
 0.926936 0.230263 0.230263 1
4
 0.932103 0.236332 0.236332 1
4
 1 0.320728 0.320728 0.997497
4
 1 0.32262 0.32262 0.997833
4
 0.995106 0.317375 0.317375 1
4
 1 0.32428 0.32428 0.990075
4
 1 0.323642 0.323642 0.993751
4
 1 0.326193 0.326193 0.990409
4
 0.998857 0.321466 0.321466 1
4
 0.991035 0.316131 0.316131 1
4
 0.98798 0.312288 0.312288 1
4
 0.985707 0.313628 0.313628 1
4
 0.987203 0.312859 0.312859 1
4
 0.982668 0.309815 0.309815 1
4
 0.977385 0.305828 0.305828 1
4
 0.995784 0.288288 0.288288 1
4
 0.999424 0.293685 0.293685 1
4
 1 0.302973 0.302973 0.995702
4
 1 0.300865 0.300865 0.996428
4
 1 0.298005 0.298005 0.999566
4
 1 0.303838 0.303838 0.992353
4
 1 0.298856 0.298856 0.996204
4
 0.963708 0.288498 0.288498 1
4
 0.978868 0.305079 0.305079 1
4
 0.969896 0.296687 0.296687 1
4
 0.943524 0.262291 0.262291 1
4
 0.939138 0.255751 0.255751 1
4
 0.94485 0.261841 0.261841 1
4
 0.942837 0.258977 0.258977 1
4
 0.936452 0.254806 0.254806 1
4
 0.948411 0.266102 0.266102 1
4
 0.941991 0.25663 0.25663 1
4
 0.939825 0.253047 0.253047 1
4
 0.943685 0.25617 0.25617 1
4
 0.935612 0.252497 0.252497 1
4
 0.94772 0.262741 0.262741 1
4
 0.951452 0.265169 0.265169 1
4
 0.949425 0.262269 0.262269 1
4
 0.947401 0.259401 0.259401 1
4
 0.943421 0.25261 0.25261 1
4
 0.947296 0.255726 0.255726 1
4
 0.951133 0.261799 0.261799 1
4
 0.945223 0.25578 0.25578 1
4
 1 0.339645 0.339645 0.961962
4
 1 0.342827 0.342827 0.957436
4
 1 0.341653 0.341653 0.965155
4
 1 0.344854 0.344854 0.960614
4
 1 0.346867 0.346867 0.960506
4
 1 0.342304 0.342304 0.961153
4
 1 0.347528 0.347528 0.956523
4
 0.975751 0.258706 0.258706 1
4
 0.978879 0.263009 0.263009 1
1
 1

